minizinc_built_ins/set/set_card.fzn
% Generated by MiniZinc 2.9.4
% Solver library: C:\Program Files\MiniZinc\share\minizinc\chuffed
% Command line invocation: C:\Program Files\MiniZinc\minizinc.exe -c --solver chuffed set_card.mzn 

array [1..6] of int: X_INTRODUCED_13_ = [1,1,1,1,1,-1];
var 0..5: c:: output_var;
var 0..2: X_INTRODUCED_0_ ::var_is_introduced :: is_defined_var;
var bool: X_INTRODUCED_1_ ::var_is_introduced :: output_var;
var bool: X_INTRODUCED_2_ ::var_is_introduced :: output_var;
var bool: X_INTRODUCED_3_ ::var_is_introduced :: output_var;
var bool: X_INTRODUCED_4_ ::var_is_introduced :: output_var;
var bool: X_INTRODUCED_5_ ::var_is_introduced :: output_var;
var 0..1: X_INTRODUCED_7_ ::var_is_introduced :: is_defined_var;
var 0..1: X_INTRODUCED_8_ ::var_is_introduced :: is_defined_var;
var 0..1: X_INTRODUCED_9_ ::var_is_introduced :: is_defined_var;
var 0..1: X_INTRODUCED_10_ ::var_is_introduced :: is_defined_var;
var 0..1: X_INTRODUCED_11_ ::var_is_introduced :: is_defined_var;
constraint int_lin_eq(X_INTRODUCED_13_,[X_INTRODUCED_7_,X_INTRODUCED_8_,X_INTRODUCED_9_,X_INTRODUCED_10_,X_INTRODUCED_11_,X_INTRODUCED_0_],0):: defines_var(X_INTRODUCED_0_);
constraint bool2int(X_INTRODUCED_1_,X_INTRODUCED_7_):: defines_var(X_INTRODUCED_7_);
constraint bool2int(X_INTRODUCED_2_,X_INTRODUCED_8_):: defines_var(X_INTRODUCED_8_);
constraint bool2int(X_INTRODUCED_3_,X_INTRODUCED_9_):: defines_var(X_INTRODUCED_9_);
constraint bool2int(X_INTRODUCED_4_,X_INTRODUCED_10_):: defines_var(X_INTRODUCED_10_);
constraint bool2int(X_INTRODUCED_5_,X_INTRODUCED_11_):: defines_var(X_INTRODUCED_11_);
solve  satisfy;
