minizinc_built_ins/set/set_card.ozn
output ["s = "++format(s)++"\n","c = "++format(c)++"\n"];
int: c;
set of int: s;
